68,151
120,151
59,89
31,118,130,148
21,60
5,129
78,90
7
1,25
69,125
10
30,116
33,148
11
12
14,23
45
14
0
18
82,99,102
57
11,118
10,138
1,119
126,136
8,9,17,20,28,52,56,63,64,80,81,91,98,110,131,149,152
16,21
25
26
38,101
39,88
30
1,43
33
33,118
95,151
31
130
148
39
75,116
40
41
68,139
43
45
46
47
84,85
48
6,36
54
55,128
55
22,61,100
73,84
44,92
62
51,66
68
69
93
105,113
67,145
107,146
76,128
72
53,58,65,94,96,104,111,121,144
73
59,147
75
76
77
24
78
1,109
82
41,97
127
49,122
13,86
24,26,50,106
72
86
71
29,87,112,143
10,59
90
12,118
40,59
32,47
2,77,103
18,41
95
97
137
128,132,142
99
27,34,150
118
102
11,33
103
48,117
70,123
106
107
109
113
115
116
13,86,134
118
42,124
3,62
108,133
127
128
129
37,101
114,135
19,74,83
54,103
3
140
15,79
141
62,142
4
35,38
21,115
146
147
148
151
